
Gurobi 11.0.1 (win64) logging started Thu Mar 14 05:16:57 2024

Set parameter LogFile to value "res/logfile/neos-3216931-puririlog.txt"
Gurobi Optimizer version 11.0.1 build v11.0.1rc0 (win64 - Windows 11.0 (22621.2))

CPU model: AMD Ryzen Threadripper PRO 5975WX 32-Cores, instruction set [SSE2|AVX|AVX2]
Thread count: 32 physical cores, 64 logical processors, using up to 10 threads

Optimize a model with 7022 rows, 3555 columns and 107341 nonzeros
Model fingerprint: 0x863507c2
Variable types: 287 continuous, 3268 integer (3268 binary)
Coefficient statistics:
  Matrix range     [1e+00, 3e+00]
  Objective range  [2e+01, 1e+04]
  Bounds range     [1e+00, 3e+02]
  RHS range        [1e+00, 3e+01]
Presolve removed 3597 rows and 563 columns
Presolve time: 0.19s
Presolved: 3425 rows, 2992 columns, 41682 nonzeros
Crushed 1992 out of 2189 user cuts to presolved model
Variable types: 0 continuous, 2992 integer (2788 binary)

Root relaxation: objective 5.893968e+04, 5088 iterations, 0.46 seconds (0.75 work units)

    Nodes    |    Current Node    |     Objective Bounds      |     Work
 Expl Unexpl |  Obj  Depth IntInf | Incumbent    BestBd   Gap | It/Node Time

     0     0 58939.6826    0  569          - 58939.6826      -     -    1s
     0     0 58939.6826    0  528          - 58939.6826      -     -    1s
     0     0 59134.3140    0  683          - 59134.3140      -     -    1s
     0     0 59134.3148    0  709          - 59134.3148      -     -    1s
     0     0 59134.3149    0  684          - 59134.3149      -     -    1s
     0     0 59134.3149    0  673          - 59134.3149      -     -    1s
     0     0 59136.8750    0  651          - 59136.8750      -     -    1s
     0     0 59136.8750    0  648          - 59136.8750      -     -    1s
     0     0 59154.9089    0  637          - 59154.9089      -     -    1s
     0     0 59154.9089    0  617          - 59154.9089      -     -    1s
     0     0 59437.7305    0  672          - 59437.7305      -     -    2s
     0     0 59444.7013    0  676          - 59444.7013      -     -    2s
     0     0 59444.7013    0  654          - 59444.7013      -     -    2s
     0     0 59445.6122    0  658          - 59445.6122      -     -    2s
     0     0 59445.6122    0  656          - 59445.6122      -     -    2s
     0     0 59445.6122    0  654          - 59445.6122      -     -    2s
     0     0 59530.7646    0  620          - 59530.7646      -     -    3s
     0     0 59530.7646    0  622          - 59530.7646      -     -    3s
     0     0 59537.7002    0  643          - 59537.7002      -     -    3s
     0     0 59537.7002    0  655          - 59537.7002      -     -    3s
     0     0 59537.7002    0  634          - 59537.7002      -     -    3s
     0     0 59545.6055    0  631          - 59545.6055      -     -    4s
     0     0 59545.6762    0  654          - 59545.6762      -     -    4s
     0     0 59546.5993    0  666          - 59546.5993      -     -    4s
     0     0 59546.5993    0  637          - 59546.5993      -     -    4s
     0     0 59546.5993    0  616          - 59546.5993      -     -    5s
     0     0 59547.6124    0  619          - 59547.6124      -     -    5s
     0     0 59547.7745    0  585          - 59547.7745      -     -    5s
     0     0 59547.7745    0  585          - 59547.7745      -     -    5s
     0     2 59547.8618    0  544          - 59547.8618      -     -    7s
     3     8 59547.9600    2  630          - 59547.8618      -  4542   11s
    69    71 infeasible    7               - 59717.4433      -  1704   15s
   135   116 70328.2880   11  465          - 59717.4433      -  1738   20s
   540   461 80730.0000   43   86          - 59717.4433      -   912   25s
   993   730 119750.000   18  356          - 59717.4433      -   706   30s
  1082   797 119826.667   28  349          - 59717.4433      -   707   36s
  1505  1155 120177.936   60  434          - 59717.4433      -   661   40s
  2163  1447 81038.7500   35  832          - 61997.9812      -   607   45s
  2173  1454 129599.545   30  654          - 61997.9812      -   604   50s
  2198  1478 63715.1693   15  671          - 61997.9812      -  59.3   55s
  2228  1489 90786.5998   17  415          - 61997.9812      -  88.1   62s
  2267  1508 71418.1371   18  515          - 61997.9812      -   159   65s
  2300  1530 75756.9071   20  437          - 61997.9812      -   201   70s
  2335  1534 infeasible   21               - 61997.9812      -   245   76s
  2431  1558 101510.588   24  209          - 61997.9812      -   339   82s
* 2507  1489              30    91335.000000 61997.9812  32.1%   384   84s
  2521  1462     cutoff   28      91335.0000 61997.9812  32.1%   389   87s
* 2601  1377              28    71320.000000 65685.0489  7.90%   410   88s
  2698  1220 infeasible   17      71320.0000 70063.4873  1.76%   433   90s

Cutting planes:
  Gomory: 4
  Cover: 5
  Implied bound: 7
  Clique: 42
  MIR: 6
  Flow cover: 18
  GUB cover: 8
  Zero half: 2
  RLT: 10
  Relax-and-lift: 12

Explored 2860 nodes (2555192 simplex iterations) in 91.01 seconds (183.39 work units)
Thread count was 10 (of 64 available processors)

Solution count 2: 71320 91335 

Optimal solution found (tolerance 1.00e-04)
Best objective 7.132000000000e+04, best bound 7.132000000000e+04, gap 0.0000%

User-callback calls 10376, time in user-callback 0.00 sec
